121
100
4266	3215	0	1	0	1	1	1	0	1	1	0	1	0	0	0	0	1	0	0	1	1	1	0	0	1	1	0	0	1	1	0	0	1	1	1	0	1	0	1	0	1	0	1	0	1	0	1	0	1	0	1	1	0	1	1	0	1	1	1	1	1	1	1	1	0	1	1	1	1	1	1	0	0	1	1	0	1	1	1	0	1	0	0	1	1	0	0	1	0	1	1	1	0	0	0	1	1	0	1	0	1	
4262	3274	0	1	0	1	1	1	0	1	1	0	1	0	0	0	1	1	0	0	1	1	1	0	0	1	1	0	0	1	1	0	0	1	1	1	0	1	0	1	0	1	0	1	0	1	0	1	0	1	0	1	1	0	1	1	0	1	1	1	1	1	1	1	1	0	1	1	1	1	1	1	0	1	1	1	0	1	1	1	0	0	0	0	1	1	0	0	1	0	1	1	1	0	0	0	1	1	0	0	0	1	
4250	3278	0	1	0	1	1	1	0	1	1	0	1	0	0	0	1	1	0	0	1	1	1	0	0	1	1	0	0	1	1	0	0	1	1	1	0	1	0	1	0	1	0	1	0	1	0	1	0	1	0	1	1	0	1	1	0	1	0	1	1	1	1	1	1	0	1	1	1	1	1	1	0	1	1	1	0	1	1	1	0	1	0	0	1	1	0	0	1	0	1	1	1	0	0	0	1	1	0	0	0	1	
4248	3300	0	1	0	1	1	1	0	1	1	0	1	0	0	0	0	1	0	0	1	1	1	0	0	1	1	0	0	1	1	0	0	1	1	1	0	1	0	1	0	1	0	1	0	1	1	1	0	1	0	1	1	0	1	1	1	1	1	1	1	1	1	1	1	0	1	1	1	1	1	1	0	0	1	1	0	1	1	1	0	1	0	0	1	1	0	0	1	0	1	1	1	0	0	0	1	1	0	0	0	1	
4246	3319	0	1	0	1	1	1	0	1	1	0	1	0	0	0	1	1	0	0	1	1	1	0	0	1	1	0	0	1	1	0	0	1	1	1	0	1	0	1	0	1	0	1	0	1	1	1	0	1	0	1	1	0	1	1	1	1	1	1	1	1	1	1	1	0	1	1	1	1	1	1	0	0	1	1	0	1	1	1	0	0	0	0	1	1	0	0	1	0	1	1	1	0	0	0	1	1	0	0	0	1	
4236	3338	0	1	0	1	1	1	0	1	1	0	1	0	0	0	1	1	0	0	1	1	1	1	1	1	1	0	0	1	1	0	0	0	1	1	0	1	0	1	0	1	0	1	0	1	1	1	0	1	0	1	0	0	1	1	0	1	1	1	1	1	1	1	1	0	1	1	1	1	1	1	0	0	1	1	0	1	1	1	0	0	0	0	1	1	0	0	1	0	1	1	1	0	0	0	1	1	0	0	0	1	
4230	3367	0	1	0	1	1	1	0	1	1	0	1	0	0	0	1	1	0	0	1	1	1	0	1	1	1	0	0	1	1	0	0	0	1	1	0	1	0	1	0	1	0	1	0	1	1	1	0	1	0	1	1	0	1	1	0	1	1	1	1	1	1	1	1	0	1	1	1	1	1	1	0	1	1	1	0	0	1	1	0	0	0	0	1	1	0	0	1	0	1	1	1	0	0	0	1	1	0	0	0	1	
4220	3368	0	1	0	1	1	1	0	1	1	0	1	0	0	0	1	1	0	0	1	1	0	0	0	1	1	0	0	1	1	0	0	0	1	1	0	1	0	1	0	1	0	1	0	1	1	1	0	1	0	1	1	0	1	1	1	1	1	1	1	1	1	1	1	0	1	1	1	1	1	1	0	0	1	1	0	1	1	1	0	1	1	0	1	1	0	0	1	0	1	1	1	0	0	0	1	1	0	0	0	1	
4218	3400	0	1	0	1	1	1	0	1	1	0	1	0	0	0	1	1	0	0	1	1	1	0	1	1	1	0	0	1	1	0	0	0	1	1	0	1	0	1	0	1	0	1	0	1	1	1	0	1	0	1	1	0	1	1	1	1	1	0	1	1	1	1	1	0	1	1	1	1	1	1	0	0	1	1	0	1	1	1	0	1	0	0	1	1	0	0	1	0	1	1	1	0	0	0	1	1	0	0	0	1	
4215	3423	0	1	0	1	1	1	0	1	1	0	1	0	0	0	1	1	0	0	1	1	1	0	1	1	1	0	0	1	1	0	0	1	1	1	0	1	0	1	0	1	0	1	0	1	0	1	0	1	0	1	1	0	1	1	1	1	1	1	1	1	1	1	1	0	1	1	1	1	1	1	0	0	1	1	0	0	1	1	0	1	0	0	1	1	0	0	1	0	1	1	1	0	0	0	1	1	0	0	0	1	
4205	3437	0	1	0	1	1	1	0	1	0	0	1	0	0	0	1	1	0	0	1	1	1	1	1	1	1	0	0	1	1	0	0	1	1	1	0	1	0	1	0	1	0	1	0	1	1	1	0	1	0	1	1	0	1	1	1	1	1	1	1	1	1	1	1	0	1	1	1	1	1	1	0	0	1	1	0	1	1	1	0	0	0	0	1	1	0	0	1	0	1	1	1	0	0	0	1	1	0	0	0	1	
4199	3443	0	1	0	1	1	1	0	1	1	0	1	0	0	0	0	1	0	0	1	1	1	1	1	1	1	0	0	1	1	0	0	0	1	1	0	1	0	1	0	1	0	1	0	1	1	1	0	1	0	1	1	0	1	1	1	1	1	1	1	1	1	1	1	0	1	1	1	1	1	1	0	0	1	1	0	0	1	1	0	1	0	0	1	1	0	0	1	0	1	1	1	0	0	0	1	1	0	0	0	1	
4197	3462	0	1	0	1	1	1	0	1	1	0	1	0	0	0	1	1	0	0	1	1	1	1	1	1	1	0	0	1	1	0	0	0	1	1	0	1	0	1	0	1	0	1	0	1	1	1	0	1	0	1	1	0	1	1	1	1	1	1	1	1	1	1	1	0	1	1	1	1	1	1	0	0	1	1	0	0	1	1	0	0	0	0	1	1	0	0	1	0	1	1	1	0	0	0	1	1	0	0	0	1	
4185	3466	0	1	0	1	1	1	0	1	1	0	1	0	0	0	1	1	0	0	1	1	1	1	1	1	1	0	0	1	1	0	0	0	1	1	0	1	0	1	0	1	0	1	0	1	1	1	0	1	0	1	1	0	1	1	1	1	0	1	1	1	1	1	1	0	1	1	1	1	1	1	0	0	1	1	0	0	1	1	0	1	0	0	1	1	0	0	1	0	1	1	1	0	0	0	1	1	0	0	0	1	
4182	3478	0	1	0	1	1	1	0	1	1	0	1	0	0	1	1	1	0	0	1	1	0	1	1	1	1	0	0	1	0	0	0	1	1	1	0	1	0	1	0	1	0	1	0	1	1	1	0	1	0	1	1	0	1	1	1	1	1	1	1	1	1	1	1	0	1	1	1	1	1	1	0	0	1	1	0	1	1	1	0	0	0	0	1	1	0	0	1	0	1	1	1	0	0	0	1	1	0	0	0	1	
4175	3491	0	1	0	1	1	1	0	1	1	0	1	0	0	0	1	1	0	0	1	1	0	1	1	1	1	0	0	1	1	0	0	0	1	1	0	1	0	1	0	1	0	1	0	1	1	1	0	1	0	1	1	0	1	1	1	1	1	1	1	1	1	1	1	0	1	1	1	1	1	1	0	1	1	1	0	0	1	1	0	0	0	0	1	1	0	0	1	0	1	1	1	0	0	0	1	1	0	0	0	1	
4174	3499	0	1	0	1	1	1	0	1	1	0	1	0	0	0	1	1	0	0	1	1	1	1	1	1	1	0	0	1	1	0	0	0	1	1	0	1	0	1	0	1	0	1	0	1	1	1	0	0	0	1	1	0	1	1	1	1	1	1	1	1	1	1	1	0	1	1	1	1	1	1	0	0	1	1	0	0	1	1	0	1	0	0	1	1	0	0	1	0	1	1	1	0	0	0	1	1	0	0	0	1	
4168	3505	0	1	0	1	1	1	0	1	1	0	1	0	0	1	1	1	0	0	1	1	0	0	1	1	1	0	0	1	1	0	0	1	1	1	0	1	0	1	0	1	0	1	0	1	1	1	0	1	0	1	1	0	1	1	1	1	1	1	1	1	1	1	1	0	0	1	1	1	1	1	0	0	1	1	0	1	1	1	0	1	0	0	1	1	0	0	1	0	1	1	1	0	0	0	1	1	0	0	0	1	
4164	3521	0	1	0	1	1	1	0	1	0	0	1	0	0	1	1	1	0	0	1	1	0	1	1	1	1	0	0	1	1	0	0	0	1	1	0	1	0	1	0	1	0	1	0	1	1	1	0	1	0	1	1	0	1	1	1	1	1	1	1	1	1	1	1	0	1	1	1	1	1	1	0	0	1	1	0	1	1	1	0	1	0	0	1	1	0	0	1	0	1	1	1	0	0	0	1	1	0	0	0	1	
4152	3528	0	1	0	1	1	1	0	1	1	0	1	0	0	0	1	1	0	0	1	1	0	1	1	1	1	0	0	1	1	0	0	0	1	1	0	1	0	1	0	1	0	1	0	1	1	1	0	0	0	1	1	0	1	1	1	1	1	1	1	1	1	1	1	0	1	1	1	1	1	1	0	1	1	1	0	0	1	1	0	1	0	0	1	1	0	0	1	0	1	1	1	0	0	0	1	1	0	0	0	1	
4151	3534	0	1	0	1	1	1	0	1	1	0	1	0	0	1	1	1	0	0	1	1	0	1	1	1	1	0	0	1	1	0	0	0	1	1	0	1	0	1	0	1	0	1	0	1	0	1	0	1	0	1	1	0	1	1	1	1	1	1	1	1	1	1	1	0	1	1	1	1	1	1	0	0	1	1	0	0	1	1	0	1	0	0	1	1	0	0	1	0	1	1	1	0	0	0	1	1	0	0	0	1	
4142	3537	0	1	0	1	1	1	0	1	1	0	1	0	0	1	1	1	0	0	1	1	0	1	1	1	1	0	0	1	1	0	0	1	1	1	0	1	0	1	0	1	0	1	0	1	1	1	0	0	0	1	1	0	1	1	1	1	1	0	1	1	1	1	1	0	1	1	1	1	1	1	0	0	1	1	0	1	1	1	0	1	0	0	1	1	0	0	1	0	1	1	1	0	0	0	1	1	0	0	0	1	
4139	3546	0	1	0	1	1	1	0	1	0	0	1	0	0	1	1	1	0	0	1	1	0	1	1	1	1	0	0	1	1	0	0	1	1	1	0	1	0	1	0	1	0	1	0	1	1	1	0	1	0	1	1	0	1	1	1	1	1	1	1	1	1	1	1	0	1	1	1	1	1	1	0	1	1	1	0	0	1	1	0	0	0	0	1	1	0	0	1	0	1	1	1	0	0	0	1	1	0	0	0	1	
4136	3554	0	1	0	1	1	1	0	1	1	0	1	1	0	1	1	1	0	0	1	1	0	1	1	1	1	0	0	1	1	0	0	0	1	1	0	1	0	1	0	1	0	1	0	1	0	1	0	1	0	1	1	0	1	1	1	1	1	1	1	1	1	1	1	0	1	1	1	1	1	1	0	0	1	1	0	0	1	1	0	0	0	0	1	1	0	0	1	0	1	1	1	0	0	0	1	1	0	0	0	1	
4130	3555	0	1	0	1	1	1	0	1	1	0	0	0	0	1	1	1	0	0	1	1	0	1	1	1	1	0	0	1	1	0	0	1	1	1	0	1	0	1	0	1	0	1	0	1	1	1	0	1	0	1	1	0	1	1	1	1	1	1	1	1	1	1	1	0	1	1	1	1	1	1	0	1	1	1	0	0	1	1	0	0	0	0	1	1	0	0	1	0	1	1	1	0	0	0	1	1	0	0	0	1	
4128	3560	0	1	0	1	1	1	0	1	1	0	1	0	0	1	1	1	0	0	1	1	0	1	1	1	1	0	0	1	1	0	0	1	1	1	0	1	0	1	0	1	0	1	0	1	1	1	0	0	0	1	1	0	1	1	1	1	1	1	1	1	1	1	1	0	1	1	1	1	1	1	0	0	1	1	0	1	1	1	0	1	0	0	1	1	0	0	1	0	1	1	0	0	0	0	1	1	0	0	0	1	
4125	3566	0	1	0	1	1	1	0	1	0	0	1	0	0	1	1	1	0	0	1	1	0	1	1	1	1	0	0	1	1	0	0	0	1	1	0	1	0	1	0	1	0	1	0	1	1	1	0	1	0	1	1	0	1	1	1	1	1	1	1	0	1	1	1	0	1	1	1	1	1	1	0	1	1	1	0	1	1	1	0	1	0	0	1	1	0	0	1	0	1	1	1	0	0	0	1	1	0	0	0	1	
4122	3569	0	1	0	1	1	1	0	1	1	0	1	0	0	1	1	1	0	0	1	1	0	1	1	1	1	0	0	1	1	0	0	1	1	1	0	1	0	1	0	1	0	1	0	1	1	1	0	0	0	1	1	0	1	1	1	1	1	1	1	1	1	1	1	0	0	1	1	1	1	1	0	0	1	1	0	1	1	1	0	1	0	0	1	1	0	0	1	0	1	1	1	0	0	0	1	1	0	0	0	1	
4121	3595	0	1	0	1	1	1	0	1	1	0	1	0	0	1	1	1	0	1	1	1	0	1	1	1	1	0	0	1	1	0	0	0	1	1	0	1	0	1	0	1	0	1	0	1	0	1	0	1	0	1	1	0	1	1	1	1	1	1	1	1	1	1	1	0	1	1	1	1	1	1	0	0	1	1	0	0	1	1	0	1	0	0	1	1	0	0	1	0	1	1	0	0	0	0	1	1	0	0	0	1	
4102	3602	0	1	0	1	1	1	0	1	1	0	1	0	0	1	1	1	0	1	1	1	0	0	1	1	1	0	0	1	1	0	0	0	1	1	0	1	0	1	0	1	0	1	0	1	1	1	0	1	0	1	1	0	1	1	1	1	1	1	1	1	1	1	1	0	0	1	1	1	1	1	0	1	1	1	0	0	1	1	0	1	0	0	1	1	0	0	1	0	1	1	0	0	0	0	1	1	0	0	0	1	
4100	3603	0	1	0	1	1	1	0	1	1	0	1	0	0	1	1	1	0	0	1	1	0	1	1	1	1	0	0	1	1	0	0	1	1	1	0	1	0	1	0	1	1	1	0	1	1	1	0	1	0	1	1	0	1	1	1	1	1	1	1	1	1	1	1	0	1	1	1	1	1	1	0	0	1	1	0	0	1	1	0	0	0	0	1	1	0	0	1	0	1	1	0	0	0	0	1	1	0	0	0	1	
4098	3605	0	1	0	1	1	1	0	1	1	0	1	0	0	1	1	1	0	1	1	1	1	1	1	1	1	0	0	1	1	0	0	0	1	1	0	1	0	1	0	1	0	1	0	1	1	1	0	0	0	1	1	0	1	1	1	1	1	0	1	1	1	1	1	0	1	1	1	1	1	1	0	0	1	1	0	0	1	1	0	1	0	0	1	1	0	0	1	0	1	1	0	0	0	0	1	1	0	0	0	1	
4094	3612	0	1	0	1	1	1	0	1	1	0	1	0	0	1	1	1	0	0	1	1	0	1	1	1	1	0	0	1	1	0	0	1	1	1	0	1	0	1	0	1	1	1	0	1	1	1	0	1	0	1	1	0	1	1	1	1	1	1	1	1	1	1	1	0	0	1	1	1	1	1	0	0	1	1	0	0	1	1	0	0	0	0	1	1	0	0	1	0	1	1	1	0	0	0	1	1	0	0	0	1	
4089	3635	0	1	0	1	1	1	0	1	1	0	1	0	0	1	1	1	0	0	1	1	0	1	1	1	1	0	0	1	1	0	0	0	1	1	0	1	0	1	0	1	1	1	0	1	1	1	0	1	0	1	1	0	1	1	1	1	1	1	1	1	1	1	1	0	0	1	1	1	1	1	0	0	1	1	0	1	1	1	0	1	0	0	1	1	0	0	1	0	1	1	0	0	0	0	1	1	0	0	0	1	
4082	3640	0	1	0	1	1	1	0	1	1	0	1	0	0	1	1	1	0	1	1	1	0	1	1	1	1	0	0	1	1	0	0	0	1	1	0	1	0	1	0	1	0	1	0	1	0	1	0	1	0	1	1	0	1	1	1	1	1	1	1	0	1	1	1	0	1	1	1	1	1	1	0	1	1	1	0	0	1	1	0	1	0	0	1	1	0	0	1	0	1	1	0	0	0	0	1	1	0	0	0	1	
4074	3646	0	1	0	1	1	1	0	1	0	0	1	0	0	1	1	1	0	0	1	1	0	1	1	1	1	0	0	1	1	0	0	0	1	1	0	1	0	1	0	1	1	1	0	1	1	1	0	1	0	1	1	0	1	1	1	1	1	1	1	0	1	1	1	0	1	1	1	1	1	1	0	1	1	1	0	0	1	1	0	1	0	0	1	1	0	0	1	0	1	1	1	0	0	0	1	1	0	0	0	1	
4071	3649	0	1	0	1	1	1	0	1	1	0	1	0	0	1	1	1	0	0	1	1	0	1	1	1	1	0	0	1	1	0	0	1	1	1	0	1	0	1	0	1	1	1	0	1	1	1	0	0	0	1	1	0	1	1	1	1	1	1	1	1	1	1	1	0	0	1	1	1	1	1	0	0	1	1	0	0	1	1	0	1	0	0	1	1	0	0	1	0	1	1	1	0	0	0	1	1	0	0	0	1	
4064	3660	0	1	0	1	1	1	0	1	1	0	1	0	0	1	1	1	0	0	1	1	0	1	1	1	1	0	0	1	1	0	0	1	1	1	0	1	0	1	0	1	1	1	0	1	1	1	0	1	0	1	1	0	1	1	1	1	1	1	1	1	1	1	1	0	0	1	1	1	1	1	0	1	1	1	0	0	1	1	0	0	0	0	1	1	0	0	1	0	1	1	0	0	0	0	1	1	0	0	0	1	
4056	3666	0	1	0	1	1	1	0	1	1	0	1	0	0	1	1	1	0	1	1	1	0	1	1	1	1	0	0	1	1	0	0	0	1	1	0	1	0	1	0	1	0	1	0	1	1	1	0	0	0	1	1	0	1	1	1	1	1	1	1	1	1	1	1	0	0	1	1	1	1	1	0	1	1	1	0	0	1	1	0	1	0	0	1	1	0	0	1	0	1	1	0	0	0	0	1	1	0	0	0	1	
4050	3680	0	1	0	1	1	1	0	1	1	0	1	0	0	1	1	1	0	0	1	1	0	1	1	1	1	0	0	1	1	0	0	0	1	1	0	1	0	1	0	1	1	1	0	1	1	1	0	1	0	1	1	0	1	1	1	1	1	1	1	0	1	1	1	0	0	1	1	1	1	1	0	1	1	1	0	1	1	1	0	1	0	0	1	1	0	0	1	0	1	1	0	0	0	0	1	1	0	0	0	1	
4041	3697	0	1	0	1	1	1	0	1	1	0	1	0	0	1	1	1	0	0	1	1	0	1	1	1	1	0	0	1	1	0	0	1	1	1	0	1	0	1	0	1	1	1	0	1	1	1	0	0	0	1	1	0	1	1	1	1	1	1	1	1	1	1	1	0	0	1	1	1	1	1	0	1	1	1	0	0	1	1	0	1	0	0	1	1	0	0	1	0	1	1	0	0	0	0	1	1	0	0	0	1	
4019	3700	0	1	0	1	1	1	0	1	0	0	1	0	0	1	1	1	0	1	1	1	1	1	1	1	1	0	0	1	1	0	0	1	1	1	0	1	0	1	0	1	1	1	0	1	1	1	0	1	0	1	1	0	1	1	1	1	1	1	1	0	1	1	1	0	0	1	1	1	1	1	0	1	1	1	0	0	1	1	0	0	0	0	1	1	0	0	1	0	1	1	0	0	0	0	1	1	0	0	0	1	
4014	3705	0	1	0	1	1	1	0	1	1	0	1	0	0	1	1	1	0	1	1	1	0	1	1	1	1	0	0	1	1	0	0	1	1	1	0	1	0	1	0	1	1	1	0	1	1	1	0	1	0	1	1	0	1	1	1	1	1	1	1	0	1	1	1	0	0	1	1	1	0	1	0	0	1	1	0	0	1	1	0	1	0	0	1	1	0	0	1	0	1	1	1	0	0	0	1	1	0	0	0	1	
4010	3716	0	1	0	1	1	1	0	1	1	0	1	1	0	1	1	1	0	0	1	1	0	1	1	1	1	0	0	1	1	0	0	0	1	1	0	1	0	1	0	1	1	1	0	1	0	1	0	0	0	1	1	0	1	1	1	1	1	1	1	1	1	1	1	0	0	1	1	1	1	1	0	1	1	1	0	0	1	1	0	1	0	0	1	1	0	0	1	0	1	1	0	0	0	0	1	1	0	0	0	1	
4009	3717	0	1	0	1	1	1	0	1	1	0	1	0	0	1	1	1	0	1	1	1	0	1	1	1	1	0	0	1	1	0	0	0	1	1	0	1	0	1	0	1	1	1	0	1	0	1	0	1	0	1	1	0	1	1	1	1	1	1	1	0	1	1	1	0	0	1	1	1	1	1	0	1	1	1	0	0	1	1	0	1	0	0	1	1	0	0	1	0	1	1	0	0	0	0	1	1	0	0	0	1	
3997	3718	0	1	0	1	1	1	0	1	1	0	1	0	0	1	1	1	0	1	1	1	0	1	1	1	1	0	0	1	1	0	0	1	1	1	0	1	0	1	0	1	0	1	0	1	1	1	0	0	0	1	1	0	1	1	1	1	1	1	1	0	1	1	1	0	0	1	1	1	1	1	0	1	1	1	0	0	1	1	0	1	0	1	1	1	0	0	1	0	1	1	0	0	0	0	1	1	0	0	0	1	
3996	3722	0	1	0	1	1	1	0	1	1	0	0	1	0	1	1	1	0	1	1	1	0	1	1	1	1	0	0	1	1	0	0	0	1	1	0	1	0	1	0	1	1	1	0	1	1	1	0	1	0	1	1	0	1	1	1	1	1	1	1	0	1	1	1	0	1	1	1	1	1	1	0	0	1	1	0	0	1	1	0	1	0	0	1	1	0	0	1	0	1	1	0	0	0	0	1	1	0	0	0	1	
3994	3724	0	1	0	1	1	1	0	1	1	0	1	0	0	1	1	1	0	0	1	1	0	1	1	1	1	0	0	1	1	0	0	0	1	1	0	1	0	1	0	1	1	1	0	1	1	1	0	1	0	1	1	0	1	1	1	1	1	1	1	0	1	1	1	1	0	1	1	1	1	1	1	0	1	1	0	0	1	1	0	1	0	0	1	1	0	0	1	0	1	1	0	0	0	0	1	1	0	0	0	1	
3990	3731	0	1	0	1	1	1	0	1	1	0	0	1	0	1	1	1	0	1	1	1	0	1	1	1	1	0	0	1	1	0	0	0	1	1	0	1	0	1	0	1	1	1	0	1	1	1	0	1	0	1	1	0	1	1	1	1	1	1	1	0	1	1	1	0	0	1	1	1	1	1	0	0	1	1	0	0	1	1	0	1	0	0	1	1	0	0	1	0	1	1	1	0	0	0	1	1	0	0	0	1	
3977	3738	0	1	0	1	1	1	0	1	1	0	1	1	0	1	1	1	0	1	1	1	0	1	1	1	1	0	0	1	1	0	0	1	1	1	0	1	0	1	0	1	1	1	0	1	1	1	0	0	0	1	1	0	1	1	1	1	1	0	1	0	1	1	1	0	0	1	1	1	1	1	0	0	1	1	0	0	1	1	0	1	0	0	1	1	0	0	1	0	1	1	1	0	0	0	1	1	0	0	0	1	
3970	3739	0	1	0	1	1	1	0	1	1	0	1	0	0	1	1	1	0	1	1	1	0	1	1	1	1	0	0	1	1	0	0	0	1	1	0	1	0	1	0	1	1	1	0	1	1	1	0	1	0	1	1	0	1	1	1	1	1	0	1	0	1	1	1	1	0	1	1	1	1	1	0	1	1	1	0	0	1	1	0	0	0	0	1	1	0	0	1	0	1	1	0	0	0	0	1	1	0	0	0	1	
3969	3747	0	1	0	1	1	1	0	1	1	0	1	0	0	1	1	1	0	1	1	1	1	1	1	1	1	0	0	1	1	0	0	0	1	1	0	1	0	1	0	1	1	1	0	1	1	1	0	0	0	1	1	0	1	1	1	1	1	0	1	0	1	1	1	1	0	1	1	1	1	1	0	0	1	1	0	0	1	1	0	1	0	0	1	1	0	0	1	0	1	1	0	0	0	0	1	1	0	0	0	1	
3964	3748	0	1	0	1	1	1	0	1	0	0	1	0	0	1	1	1	0	1	1	1	0	1	1	1	1	0	0	1	1	0	0	0	1	1	0	1	0	1	0	1	1	1	0	1	0	1	0	1	0	1	1	0	1	1	1	1	1	1	1	0	1	1	1	1	0	1	1	1	1	1	0	1	1	1	0	0	1	1	0	1	0	0	1	1	0	0	1	0	1	1	0	0	0	0	1	1	0	0	0	1	
3963	3761	0	1	0	1	1	1	0	1	1	0	1	1	0	1	1	1	0	1	1	1	0	1	1	1	1	0	0	1	1	0	0	1	1	1	0	1	0	1	0	1	1	1	0	1	1	1	0	0	0	1	1	0	1	1	1	1	1	1	1	0	1	1	1	0	0	1	1	1	1	1	0	0	1	1	0	0	1	1	0	1	0	0	1	1	0	0	1	0	1	1	0	0	0	0	1	1	0	0	0	1	
3952	3769	0	1	0	1	1	1	0	1	1	0	1	1	0	1	1	1	0	1	1	1	0	1	1	1	1	0	0	1	1	0	0	0	1	1	0	1	0	1	0	1	1	1	0	1	1	1	0	0	0	1	1	1	1	1	1	1	1	1	1	0	1	1	1	0	0	1	1	1	1	1	0	0	1	1	0	0	1	1	0	1	0	0	1	1	0	0	1	0	1	1	0	0	0	0	1	1	0	0	0	1	
3938	3773	0	1	0	1	1	1	0	1	1	0	1	1	0	1	1	1	0	1	1	1	0	1	1	1	1	0	0	1	1	0	0	1	1	1	0	1	0	1	0	1	1	1	0	1	1	1	0	1	0	1	1	0	1	1	1	1	1	1	1	0	1	1	1	0	0	1	1	1	1	1	0	0	1	1	0	0	1	1	0	1	0	0	1	1	0	0	0	0	1	1	0	0	0	0	1	1	0	0	0	1	
3929	3778	0	1	0	1	1	1	0	1	0	0	0	1	0	1	1	1	0	1	1	1	0	1	1	1	1	0	0	1	1	0	0	1	1	1	0	1	0	1	0	1	1	1	0	1	1	1	0	1	0	1	1	0	1	1	1	1	1	1	1	0	1	1	1	0	0	1	1	1	1	1	1	1	1	1	0	0	1	1	0	1	0	0	1	1	0	0	1	0	1	1	0	0	0	0	1	1	0	0	0	1	
3927	3783	0	1	0	1	1	1	0	1	0	0	1	1	0	1	1	1	0	1	1	1	0	1	1	1	1	0	0	1	1	0	0	0	1	1	0	1	0	1	0	1	1	1	0	1	1	1	0	1	0	1	1	0	1	1	1	1	1	1	1	0	1	1	1	0	0	1	1	1	0	1	1	1	1	1	0	0	1	1	0	1	0	0	1	1	0	0	1	0	1	1	0	0	0	0	1	1	0	0	0	1	
3924	3786	0	1	0	1	1	1	0	1	1	0	1	1	0	1	1	1	0	1	1	1	0	1	1	1	1	0	0	1	1	0	0	0	1	1	0	1	0	1	0	1	1	1	0	1	1	1	0	0	0	1	1	0	1	1	1	1	1	1	1	0	1	1	1	0	0	1	1	1	0	1	0	1	1	1	0	0	1	1	0	1	0	0	1	1	0	0	1	0	1	1	0	0	0	0	1	1	0	0	0	1	
3918	3792	0	1	0	1	1	1	0	1	0	0	1	1	0	1	1	1	0	1	1	1	0	1	1	1	1	0	0	1	1	0	0	1	1	1	0	1	0	1	0	1	1	1	0	1	1	1	0	0	0	1	1	0	1	1	1	1	1	1	1	0	1	1	1	1	0	1	1	1	1	1	0	0	1	1	0	0	1	1	0	1	0	0	1	1	0	0	1	0	1	1	0	0	0	0	1	1	0	0	0	1	
3909	3801	0	1	0	1	1	1	0	1	1	0	0	1	0	1	1	1	0	1	1	1	0	1	1	1	1	0	0	1	1	0	0	1	1	1	0	1	0	1	0	1	1	1	0	1	1	1	0	0	0	1	1	0	1	1	1	1	1	1	1	0	1	1	1	1	0	1	1	1	1	1	0	0	1	1	0	0	1	1	0	1	0	0	1	1	0	0	1	0	1	1	0	0	0	0	1	1	0	0	0	1	
3907	3806	0	1	0	1	1	1	0	1	1	0	1	1	0	1	1	1	0	1	1	1	0	1	1	1	1	0	0	1	1	0	0	0	1	1	0	1	0	1	0	1	1	1	0	1	1	1	0	0	0	1	1	0	1	1	1	1	1	1	1	0	1	1	1	1	0	1	1	1	0	1	0	0	1	1	0	0	1	1	0	1	0	0	1	1	0	0	1	0	1	1	0	0	0	0	1	1	0	0	0	1	
3888	3812	0	1	0	1	1	1	0	1	0	0	1	1	0	1	1	1	0	1	1	1	0	1	1	1	1	0	0	1	1	0	0	1	1	1	0	1	0	1	0	1	1	1	0	1	1	1	0	0	0	1	1	1	1	1	1	1	1	0	1	0	1	1	1	0	0	1	1	1	1	1	0	1	1	1	0	0	1	1	0	1	0	1	1	1	0	0	1	0	1	1	0	0	0	0	1	1	0	0	0	1	
3884	3813	0	1	0	1	1	1	0	1	1	0	0	1	0	1	1	1	0	1	1	1	0	1	1	1	1	0	0	1	1	0	0	1	1	1	0	1	0	1	0	1	1	1	0	1	1	1	0	1	0	1	1	0	1	1	1	1	1	1	1	0	1	1	1	1	0	1	1	1	1	1	0	0	1	1	0	0	1	1	0	1	0	0	1	1	0	0	0	0	1	1	0	0	0	0	1	1	0	0	0	1	
3879	3817	0	1	0	1	1	1	0	1	0	0	1	1	0	1	1	1	0	1	1	1	0	1	1	1	1	0	0	1	1	0	0	0	1	1	0	1	0	1	0	1	1	1	0	1	1	1	0	0	0	1	1	0	1	1	1	1	1	1	1	0	1	1	1	1	0	1	1	1	0	1	0	1	1	1	0	0	1	1	0	1	0	0	1	1	0	0	1	0	1	1	0	0	0	0	1	1	0	0	0	1	
3870	3826	0	1	0	1	1	1	0	1	1	0	0	1	0	1	1	1	0	1	1	1	0	1	1	1	1	0	0	1	1	0	0	0	1	1	0	1	0	1	0	1	1	1	0	1	1	1	0	0	0	1	1	0	1	1	1	1	1	1	1	0	1	1	1	1	0	1	1	1	0	1	0	1	1	1	0	0	1	1	0	1	0	0	1	1	0	0	1	0	1	1	0	0	0	0	1	1	0	0	0	1	
3860	3830	0	1	0	1	1	1	0	1	0	0	1	1	0	1	1	1	0	1	1	1	0	1	1	1	1	0	0	1	1	0	0	1	1	1	0	1	0	1	0	1	1	1	0	1	1	1	0	0	0	1	1	0	1	1	1	1	1	0	1	0	1	1	1	1	0	1	1	1	0	1	1	1	1	1	0	0	1	1	0	1	0	0	1	1	0	0	1	0	1	1	0	0	0	0	1	1	0	0	0	1	
3855	3832	0	1	0	1	1	1	0	1	1	0	0	1	0	1	1	1	0	0	1	1	0	1	1	1	1	0	0	1	1	0	0	0	1	1	0	1	0	1	1	1	1	1	0	1	1	1	0	0	0	1	1	0	1	1	1	1	1	1	1	0	1	1	1	1	0	1	1	1	0	1	0	1	1	1	0	0	1	1	0	1	0	0	1	1	0	0	1	0	1	1	0	0	0	0	1	1	0	0	0	1	
3839	3836	0	1	0	1	1	1	0	1	1	0	0	1	0	1	1	1	0	1	1	1	0	1	1	1	1	0	0	1	1	0	0	0	1	1	0	1	0	1	0	1	1	1	0	1	1	1	0	0	0	1	1	0	1	1	1	1	1	0	1	0	1	1	1	1	0	1	1	1	0	1	0	1	1	1	0	0	1	1	0	1	1	0	1	1	0	0	1	0	1	1	0	0	0	0	1	1	0	0	0	1	
3838	3839	0	1	0	1	1	1	0	1	1	0	0	1	0	1	1	1	0	1	1	1	0	1	1	1	1	0	0	1	1	0	0	0	1	1	0	1	0	1	1	1	1	1	0	1	1	0	0	0	0	1	1	0	1	1	1	1	1	1	1	0	1	1	1	1	0	1	1	1	1	1	0	0	1	1	0	0	1	1	0	1	0	0	1	1	0	0	1	0	1	1	0	0	0	0	1	1	0	0	0	1	
3834	3842	0	1	0	1	1	1	0	1	0	0	1	1	0	1	1	1	0	1	1	1	0	1	1	1	1	0	0	1	1	0	0	0	1	1	0	1	0	1	0	1	1	1	0	1	1	1	0	0	0	1	1	0	1	1	1	1	1	1	1	0	1	1	1	1	0	1	1	1	0	1	0	0	1	1	1	0	1	1	0	1	0	0	1	1	0	0	1	0	1	1	0	0	0	0	1	1	0	0	0	1	
3833	3843	0	1	0	1	1	1	0	1	0	0	0	1	0	1	1	1	0	1	1	1	0	1	1	1	1	0	0	1	1	1	0	1	1	1	0	1	0	1	0	1	1	1	0	1	1	1	0	0	0	1	1	0	1	1	1	1	1	0	1	0	1	1	1	1	0	1	1	1	1	1	0	1	1	1	0	0	1	1	0	1	0	0	1	1	0	0	1	0	1	1	0	0	0	0	1	1	0	0	0	1	
3832	3845	0	1	0	1	1	1	0	1	1	0	1	1	0	1	1	1	0	1	1	1	0	1	1	1	1	0	0	1	1	0	0	1	1	1	0	1	0	1	0	1	1	1	0	1	1	1	0	0	0	1	1	0	1	1	1	1	1	0	1	0	1	1	1	1	0	1	1	1	0	1	0	1	1	1	0	0	1	1	0	1	0	0	1	1	0	0	0	0	1	1	0	0	0	0	1	1	0	0	0	1	
3831	3848	0	1	0	1	1	1	0	1	0	0	1	1	0	1	1	1	0	1	1	1	0	1	1	1	1	0	0	1	1	1	0	0	1	1	0	1	0	1	0	1	1	1	0	1	1	1	0	0	0	1	1	0	1	1	1	1	1	0	1	0	1	1	1	1	0	1	1	1	0	1	0	1	1	1	0	0	1	1	0	1	0	0	1	1	0	0	1	0	1	1	0	0	0	0	1	1	0	0	0	1	
3825	3851	0	1	0	1	1	1	0	1	1	0	0	1	0	1	1	1	0	1	1	1	0	1	1	1	1	0	0	1	1	0	0	0	1	1	0	1	0	1	0	1	1	1	0	1	1	1	0	0	0	1	1	0	1	1	1	1	1	1	1	0	1	1	1	1	0	1	1	1	0	1	0	0	1	1	1	0	1	1	0	1	0	0	1	1	0	0	1	0	1	1	0	0	0	0	1	1	0	0	0	1	
3822	3857	0	1	0	1	1	1	0	1	1	0	0	1	0	1	1	1	0	1	1	1	0	1	1	1	1	0	0	1	1	1	0	0	1	1	0	1	0	1	0	1	1	1	0	1	1	1	0	0	0	1	1	0	1	1	1	1	1	0	1	0	1	1	1	1	0	1	1	1	0	1	0	1	1	1	0	0	1	1	0	1	0	0	1	1	0	0	1	0	1	1	0	0	0	0	1	1	0	0	0	1	
3806	3860	0	1	0	1	1	1	0	1	0	0	1	1	0	1	1	1	0	1	1	1	0	1	1	1	1	0	0	1	1	1	0	0	1	1	0	1	0	1	0	1	1	1	0	1	1	1	0	1	0	1	1	0	1	1	1	1	1	0	1	0	1	1	1	1	0	1	1	1	0	1	0	1	1	1	0	0	1	1	0	1	0	0	1	1	0	0	0	0	1	1	0	0	0	0	1	1	0	0	0	1	
3797	3862	0	1	0	1	1	1	0	1	0	0	0	1	0	1	1	1	0	1	1	1	0	1	1	1	1	0	0	1	1	0	0	0	1	1	0	1	0	1	0	1	1	1	0	1	1	1	0	0	0	1	1	0	1	1	1	1	1	1	1	0	1	1	1	1	0	1	1	1	0	1	0	1	1	1	1	0	1	1	0	1	0	0	1	1	0	0	1	0	1	1	0	0	0	0	1	1	0	0	0	1	
3791	3863	0	0	0	1	1	1	0	1	1	0	0	1	0	1	1	1	0	1	1	1	0	1	1	1	1	0	0	1	1	0	0	0	1	1	0	1	0	1	1	1	1	1	0	1	0	1	0	0	0	1	1	0	1	1	1	1	1	1	1	0	1	1	1	1	0	1	1	1	0	1	0	1	1	1	0	0	1	1	0	1	0	0	1	1	0	0	1	0	1	1	0	0	0	0	1	1	0	0	0	1	
3787	3870	0	1	0	1	1	1	0	1	1	0	1	1	0	1	1	1	0	1	1	1	0	1	1	1	1	0	0	1	1	0	0	1	1	1	0	1	0	1	0	1	1	1	0	1	1	1	0	0	0	1	1	0	1	1	1	1	1	0	1	0	1	1	1	1	0	1	1	1	0	1	0	0	1	1	1	0	1	1	0	1	0	0	1	1	0	0	0	0	1	1	0	0	0	0	1	1	0	0	0	1	
3779	3871	0	1	0	1	1	1	0	1	1	0	0	1	0	1	1	1	1	1	1	1	0	1	1	1	1	0	0	1	1	0	0	1	1	1	0	1	0	1	0	1	1	1	0	1	1	0	0	0	0	1	1	0	1	1	1	1	1	0	1	0	1	1	1	1	0	1	1	1	1	1	0	1	1	1	0	0	1	1	0	1	0	0	1	1	0	0	0	0	1	1	0	0	0	0	1	1	0	0	0	1	
3778	3875	0	1	0	1	1	1	0	1	0	0	0	1	0	1	1	1	0	1	1	1	0	1	1	1	1	0	0	1	1	0	0	1	1	1	0	1	0	1	0	1	1	1	0	1	1	1	0	0	0	1	1	0	1	1	1	1	1	0	1	0	1	1	1	1	0	1	1	1	0	1	1	1	1	1	1	0	1	1	0	1	0	0	1	1	0	0	1	0	1	1	0	0	0	0	1	1	0	0	0	1	
3763	3878	0	1	0	1	1	1	0	1	1	0	0	1	0	1	1	1	0	1	1	1	0	1	1	1	1	0	0	1	1	0	0	1	1	1	0	1	0	1	1	1	1	1	0	1	1	0	0	0	0	1	1	0	1	1	1	1	1	0	1	0	1	1	1	1	0	1	1	1	1	1	0	1	1	1	0	0	1	1	0	1	0	0	1	1	0	0	0	0	1	1	0	0	0	0	1	1	0	0	0	1	
3762	3881	0	1	0	1	1	1	0	1	0	0	0	1	0	1	1	1	0	1	1	1	0	1	1	1	1	0	0	1	1	1	0	0	1	1	0	1	0	1	1	1	1	1	0	1	1	0	0	0	0	1	1	0	1	1	1	1	1	0	1	0	1	1	1	1	0	1	1	1	1	1	0	1	1	1	0	0	1	1	0	1	0	0	1	1	0	0	1	0	1	1	0	0	0	0	1	1	0	0	0	1	
3753	3885	0	1	0	1	1	1	0	1	0	0	0	1	0	1	1	1	0	1	1	1	0	1	1	1	1	0	0	1	1	1	0	1	1	1	0	1	0	1	0	0	1	1	0	1	1	1	0	0	0	1	1	0	1	1	1	1	1	1	1	0	1	1	1	1	0	1	1	1	0	1	0	1	1	1	0	0	1	1	0	1	0	1	1	1	0	0	1	0	1	1	0	0	0	0	1	1	0	0	0	1	
3751	3891	0	0	0	1	1	1	0	1	0	0	1	1	0	1	1	1	0	1	1	1	0	1	1	1	1	0	0	1	1	1	0	1	1	1	0	1	0	1	0	1	1	1	0	1	1	1	0	0	0	1	1	0	1	1	1	1	1	1	1	0	1	1	1	1	0	1	1	1	0	1	0	1	1	1	0	0	1	1	0	1	0	0	1	1	0	0	0	0	1	1	0	0	0	0	1	1	0	0	0	1	
3749	3893	0	1	0	1	1	1	0	1	0	0	0	1	0	1	1	1	0	1	1	1	0	1	1	1	1	0	0	1	1	1	0	0	1	1	0	1	0	1	0	1	1	1	0	1	1	1	0	0	0	1	1	0	1	1	1	1	1	0	1	0	1	1	1	1	0	1	1	1	0	1	0	1	1	1	1	0	1	1	0	1	0	0	1	1	0	0	1	0	1	1	0	0	0	0	1	1	0	0	0	1	
3732	3908	0	1	0	1	1	1	0	1	1	0	0	1	0	1	1	1	0	1	1	1	0	1	1	1	1	0	0	1	1	0	0	1	1	1	0	1	0	1	0	1	1	1	0	1	1	0	0	0	0	1	1	0	1	1	1	1	1	1	1	0	1	1	1	1	0	1	1	1	0	1	0	1	1	1	1	0	1	1	0	1	0	0	1	1	0	0	0	0	1	1	0	0	0	0	1	1	0	0	0	1	
3704	3912	0	1	0	1	1	1	0	1	0	0	1	1	0	1	1	1	1	1	1	1	0	1	1	1	1	0	0	1	1	0	0	0	1	1	0	1	0	1	0	1	1	1	0	1	1	0	0	0	0	1	1	0	1	1	1	1	1	0	1	0	1	1	1	1	0	1	1	1	0	1	0	1	1	1	1	0	1	1	0	1	0	0	1	1	0	0	0	0	1	1	0	0	0	0	1	1	0	0	0	1	
3690	3914	0	1	0	1	1	1	0	1	0	0	0	1	0	1	1	1	0	1	1	1	0	1	1	1	1	0	0	1	1	0	0	1	1	1	0	1	0	1	1	1	1	1	0	1	1	0	0	0	0	1	1	0	1	1	1	1	1	0	1	0	1	1	1	1	0	1	1	1	1	1	0	1	1	1	1	0	1	1	0	1	0	0	1	1	0	0	0	0	1	1	0	0	0	0	1	1	0	0	0	1	
3688	3919	0	1	0	1	1	1	0	1	0	0	1	1	0	1	1	1	0	1	1	1	0	1	1	1	1	0	0	1	1	0	0	0	1	1	0	1	0	1	1	1	1	1	0	1	1	0	0	0	0	1	1	0	1	1	1	1	1	0	1	0	1	1	1	1	0	1	1	1	0	1	0	1	1	1	1	0	1	1	0	1	0	0	1	1	0	0	0	0	1	1	0	0	0	0	1	1	0	0	0	1	
3672	3925	0	1	0	1	1	1	0	1	0	0	0	1	0	1	1	1	0	1	1	1	0	1	1	1	1	0	0	1	1	1	0	1	1	1	0	1	0	1	0	1	1	1	0	1	1	0	0	0	0	1	1	0	1	1	1	1	1	1	1	0	1	1	1	1	0	1	1	1	0	1	0	1	1	1	1	0	1	1	0	1	0	0	1	1	0	0	0	0	1	1	0	0	0	0	1	1	0	0	0	1	
3666	3926	0	0	0	1	1	1	0	1	1	0	0	1	0	1	1	1	0	1	1	1	0	1	1	1	1	0	0	1	1	1	0	1	1	1	0	1	0	1	0	1	1	1	0	1	1	0	0	0	0	1	1	0	1	1	1	1	1	1	1	0	1	1	1	1	0	1	1	1	0	1	0	1	1	1	0	0	1	1	0	1	0	1	1	1	0	0	0	0	1	1	0	0	0	0	1	1	0	0	0	1	
3660	3935	0	0	0	1	1	1	0	1	1	0	0	1	0	1	1	1	0	1	1	1	0	1	1	1	1	0	0	1	1	0	0	0	1	1	0	1	0	1	0	1	1	1	0	1	1	1	0	0	0	1	1	1	1	1	1	1	1	0	1	0	1	1	1	1	0	1	1	1	0	1	0	1	1	1	1	0	1	1	0	1	0	1	1	1	0	0	0	0	1	1	0	0	0	0	1	1	0	0	0	1	
3653	3936	0	0	0	1	1	1	0	1	0	0	1	1	0	1	1	1	0	1	1	1	0	1	1	1	1	0	0	1	1	1	0	0	1	1	0	1	0	1	1	1	1	1	0	1	1	1	0	0	0	1	1	0	1	1	1	1	1	0	1	0	1	1	1	1	0	1	1	1	0	1	0	0	1	1	1	0	1	1	0	1	0	0	1	1	0	0	0	0	1	1	0	0	0	0	1	1	0	0	0	1	
3645	3937	0	0	0	1	1	1	0	1	0	0	0	1	0	1	1	1	1	1	1	1	0	1	1	1	1	0	0	1	1	1	0	0	1	1	0	1	0	1	1	1	1	1	0	1	1	0	0	0	0	1	1	0	1	1	1	1	1	0	1	0	1	1	1	1	0	1	1	1	1	1	0	1	1	1	0	0	1	1	0	1	0	0	1	1	0	0	0	0	1	1	0	0	0	0	1	1	0	0	0	1	
3635	3938	0	1	0	1	1	1	0	1	0	0	0	1	0	1	1	1	1	1	1	1	0	1	1	1	1	0	0	1	1	1	0	0	1	1	0	1	0	1	0	1	1	1	0	1	1	0	0	0	0	1	1	0	1	1	1	1	1	0	1	0	1	1	1	1	0	1	1	1	0	1	0	1	1	1	1	0	1	1	0	1	0	0	1	1	0	0	0	0	1	1	0	0	0	0	1	1	0	0	0	1	
3632	3949	0	0	0	1	1	1	0	1	0	0	0	1	0	1	1	1	1	1	1	1	0	1	1	1	1	0	0	1	1	1	0	0	1	1	0	1	0	1	0	1	1	1	0	1	1	1	0	0	0	1	1	0	1	1	1	1	1	0	1	0	1	1	1	1	0	1	1	1	0	1	0	1	1	1	1	0	1	1	0	1	0	0	1	1	0	0	0	0	1	1	0	0	0	0	1	1	0	0	0	1	
3616	3956	0	0	0	1	1	1	0	1	0	0	0	1	0	1	1	1	0	1	1	1	0	1	1	1	1	0	0	1	1	1	0	0	1	1	0	1	0	1	1	1	1	1	0	1	1	1	0	0	0	1	1	0	1	1	1	1	1	0	1	0	1	1	1	1	0	1	1	1	0	1	0	1	1	1	1	0	1	1	0	1	0	0	1	1	0	0	0	0	1	1	0	0	0	0	1	1	0	0	0	1	
3595	3966	0	0	0	1	1	1	0	1	0	0	0	1	0	1	1	1	0	1	1	1	0	1	1	1	1	0	0	1	1	1	0	0	1	1	0	1	0	1	1	0	1	1	0	1	1	1	0	0	0	1	1	0	1	1	1	1	1	1	1	0	1	1	1	1	0	1	1	1	0	1	0	1	1	1	1	0	1	1	0	1	0	0	1	1	0	0	0	0	1	1	0	0	0	0	1	1	0	0	0	1	
3582	3970	0	0	0	1	1	1	0	1	0	0	0	1	0	1	1	1	0	1	1	1	0	1	1	1	1	0	0	1	1	1	0	0	1	1	0	1	0	1	0	1	1	1	0	1	1	0	0	0	0	1	1	1	1	1	1	1	1	1	1	0	1	1	1	1	0	1	1	1	0	1	0	1	1	1	1	0	1	1	0	1	0	1	1	1	0	0	0	0	1	1	0	0	0	0	1	1	0	0	0	1	
3568	3971	0	0	0	1	1	1	0	1	1	0	0	1	0	1	1	1	0	1	1	1	0	1	1	1	1	0	0	1	1	1	0	0	1	1	0	1	0	1	1	1	1	1	0	1	1	0	0	0	0	1	1	0	1	1	1	1	1	0	1	0	1	1	1	1	0	1	1	1	0	1	0	0	1	1	1	0	1	1	0	1	0	1	1	1	0	0	0	0	1	1	0	0	0	0	1	1	0	0	0	1	
3556	3975	0	0	0	1	1	1	0	1	0	0	0	1	0	1	1	1	1	1	1	1	0	1	1	1	1	0	0	1	1	1	0	0	1	1	0	1	0	1	0	1	1	1	0	1	1	0	0	0	0	1	1	0	1	1	1	1	1	0	1	0	1	1	1	1	0	1	1	1	0	1	0	1	1	1	1	0	1	1	0	1	0	1	1	1	0	0	0	0	1	1	0	0	0	0	1	1	0	0	0	1	
3540	3982	0	0	0	1	1	1	0	1	0	0	0	1	0	1	1	1	0	1	1	1	0	1	1	1	1	0	0	1	1	1	0	0	1	1	0	1	0	1	1	1	1	1	0	1	1	0	0	0	0	1	1	0	1	1	1	1	1	0	1	0	1	1	1	1	0	1	1	1	0	1	0	1	1	1	1	0	1	1	0	1	0	1	1	1	0	0	0	0	1	1	0	0	0	0	1	1	0	0	0	1	
3512	3986	0	0	0	1	1	1	0	1	0	1	0	1	0	1	1	1	0	1	1	1	0	1	1	1	1	0	0	1	1	0	0	0	1	1	0	1	0	1	1	0	1	1	0	1	1	0	0	0	0	1	1	0	1	1	1	1	1	1	1	0	1	1	1	1	0	1	1	1	0	1	0	1	1	1	1	0	1	1	0	1	0	1	1	1	0	0	0	0	1	1	0	0	0	0	1	1	0	0	0	1	
3511	3987	0	0	0	1	1	1	0	1	0	0	0	1	0	1	1	1	1	1	1	1	0	1	1	1	1	0	0	1	1	0	0	0	1	1	0	1	0	1	1	0	1	1	0	1	1	0	0	0	0	1	1	0	1	1	1	1	1	0	1	0	1	1	1	1	0	1	1	1	0	1	1	1	1	1	1	0	1	1	0	1	0	1	1	1	0	0	0	0	1	1	0	0	0	0	1	1	0	0	0	1	
3497	3989	0	0	0	1	1	1	0	1	1	0	0	1	0	1	1	1	0	1	1	1	0	1	1	1	1	0	0	1	1	1	0	0	1	1	0	1	0	1	1	0	1	1	0	1	1	0	0	0	1	1	1	0	1	1	1	1	1	0	1	0	1	1	1	1	0	1	1	1	0	1	0	0	1	1	1	0	1	1	0	1	0	1	1	1	0	0	0	0	1	1	0	0	0	0	1	1	0	0	0	1	
3490	3990	0	0	0	1	1	1	0	1	0	0	0	1	0	1	1	1	0	1	1	1	0	1	1	1	1	0	0	1	1	1	0	1	1	1	0	1	0	1	1	0	1	1	0	1	1	0	0	0	0	1	1	0	1	1	1	1	1	1	1	0	0	1	1	1	0	1	1	1	0	1	0	1	1	1	1	0	1	1	0	1	0	1	1	1	0	0	0	0	1	1	0	0	0	0	1	1	0	0	0	1	
3485	3993	0	0	0	1	1	1	0	1	0	0	0	1	0	1	1	1	1	1	1	1	0	1	1	1	1	0	0	1	1	1	0	0	1	1	0	1	0	1	0	0	1	1	0	1	1	0	0	0	1	1	1	0	1	1	1	1	1	0	1	0	1	1	1	1	0	1	1	1	0	1	0	1	1	1	1	0	1	1	0	1	0	1	1	1	0	0	0	0	1	1	0	0	0	0	1	1	0	0	0	1	
3481	3998	0	0	0	1	1	1	0	1	0	1	0	1	0	1	1	1	0	1	1	1	0	1	1	1	1	0	0	1	1	1	0	0	1	1	0	1	0	1	1	0	1	1	0	1	1	0	0	0	0	1	1	0	1	1	1	1	1	0	1	0	1	1	1	1	0	1	1	1	0	1	1	1	1	1	1	0	1	1	0	1	0	0	1	1	0	0	0	0	1	1	0	0	0	0	1	1	0	0	0	1	
3469	4000	0	0	0	1	1	1	0	1	0	0	0	1	0	1	1	1	0	1	1	1	0	1	1	1	1	0	0	1	1	1	0	0	1	1	0	1	0	1	1	0	1	1	0	1	1	0	0	0	1	1	1	0	1	1	1	1	1	0	1	0	1	1	1	1	0	1	1	1	0	1	0	1	1	1	1	0	1	1	0	1	0	1	1	1	0	0	0	0	1	1	0	0	0	0	1	1	0	0	0	1	
3466	4001	0	0	0	1	1	1	0	1	1	0	0	1	0	1	1	1	0	1	1	1	0	1	1	1	1	0	0	1	1	1	0	0	1	1	0	1	0	1	1	0	1	1	0	1	1	0	0	0	0	1	1	1	1	1	1	1	1	0	1	0	1	1	1	1	0	1	1	1	0	1	0	1	1	1	1	0	1	1	0	1	0	1	1	1	0	0	0	0	1	1	0	0	0	0	0	1	0	0	0	1	
3453	4003	0	0	0	1	1	1	0	1	0	0	0	1	0	1	1	1	1	1	1	1	0	1	1	1	1	0	0	1	1	1	0	0	1	1	0	1	0	1	1	0	1	1	0	1	1	0	0	0	0	1	1	0	1	1	1	1	1	0	1	0	0	1	1	1	0	1	1	1	0	1	0	1	1	1	1	0	1	1	0	1	0	1	1	1	0	0	0	0	1	1	0	0	0	0	1	1	0	0	0	1	
3431	4009	0	0	0	1	1	1	0	1	0	1	0	1	0	1	1	1	1	1	1	1	0	1	1	1	1	0	0	1	1	1	0	0	1	1	0	1	0	1	1	0	1	1	0	1	1	0	0	0	0	1	1	0	1	1	1	1	1	0	1	0	1	1	1	1	0	1	1	1	0	1	0	1	1	1	1	0	1	1	0	1	0	0	1	1	0	0	0	0	1	1	0	0	0	0	0	1	0	0	0	1	
3415	4017	0	0	0	1	1	1	0	1	0	0	0	1	0	1	1	1	1	1	1	1	0	1	1	1	1	0	0	1	1	1	0	0	1	0	0	1	0	1	1	0	1	1	0	1	1	0	0	0	0	1	1	0	1	1	1	1	1	0	1	0	1	1	1	1	0	1	1	1	0	1	0	1	1	1	1	0	1	1	0	1	0	1	1	1	0	0	0	0	1	1	0	0	0	0	1	1	0	0	0	1	
3364	4021	0	0	0	1	1	1	0	1	0	1	0	1	0	1	1	1	1	1	1	1	0	1	1	1	1	0	0	1	1	1	0	1	1	0	0	1	0	1	1	0	1	1	0	1	1	0	0	0	0	1	1	0	1	1	1	1	1	0	1	0	1	1	1	1	0	1	1	1	0	1	0	1	1	1	1	0	1	1	0	1	0	0	1	1	0	0	0	0	1	1	0	0	0	0	0	1	0	0	0	1	
3350	4024	0	0	0	0	1	1	0	1	0	1	0	1	0	1	1	1	1	1	1	1	0	1	1	1	1	0	0	1	1	1	0	0	1	0	0	1	0	1	1	0	1	1	0	1	1	0	0	0	0	1	1	0	1	1	1	1	1	0	1	0	1	1	1	1	0	1	1	1	0	1	0	1	1	1	1	0	1	1	0	1	0	1	1	1	0	0	0	0	1	1	0	0	0	0	1	1	0	0	0	1	
3340	4028	0	0	0	1	1	1	0	1	0	1	0	1	0	1	1	1	0	1	1	1	0	1	1	1	1	0	0	0	1	1	0	0	1	0	0	1	0	1	1	0	1	1	0	1	1	0	0	0	0	1	1	0	1	1	1	1	1	0	1	0	1	1	1	1	0	1	1	1	0	1	0	1	1	1	1	0	1	1	0	1	1	1	1	1	0	0	0	0	1	1	0	0	0	0	1	1	0	0	0	1	
3271	4029	0	0	0	1	1	1	0	1	0	1	0	1	0	1	1	1	1	1	1	0	0	1	1	1	1	0	0	1	1	1	0	0	1	0	0	1	0	1	1	0	1	1	0	1	1	0	0	0	0	1	1	1	1	1	1	1	1	0	1	0	1	1	1	1	0	1	1	1	0	1	0	1	1	1	1	0	1	1	0	1	0	1	1	1	0	0	0	0	1	1	0	0	0	0	0	1	0	0	0	1	
3246	4031	0	0	0	1	1	1	0	1	0	1	0	1	0	1	1	1	1	1	1	1	0	1	1	1	1	0	0	0	1	1	0	0	1	0	0	1	0	1	1	0	1	1	0	1	1	0	0	0	1	1	1	1	1	1	1	1	1	0	1	0	1	1	1	1	0	0	1	1	0	1	0	0	1	1	1	0	1	1	0	1	0	1	1	1	0	0	0	0	1	1	0	0	0	0	1	1	0	0	0	1	
3235	4037	0	0	0	1	1	1	0	1	0	1	0	1	0	1	1	1	1	1	1	1	0	1	1	1	1	0	0	0	1	1	0	0	1	0	0	1	0	1	1	0	1	1	0	1	1	0	0	0	0	1	1	0	1	1	1	1	1	0	1	0	1	1	1	1	0	0	1	1	0	1	0	1	1	1	1	0	1	1	0	1	1	1	1	1	0	0	0	0	1	1	0	0	0	0	0	1	0	0	0	1	
